0 8 18
1 14 22
2 17 24
3 9 26
4 27 32
5 26 33
6 27 33
7 30 33
8 28 36
9 36 36
10 32 35
11 34 34
12 33 33
13 16 30
14 29 29
15 9 28
16 25 26
17 20 23
18 20 23
19 20 22
20 18 23
21 17 24
22 9 20
23 17 19
24 16 19
25 17 18
26 18 18
27 9 17
28 13 16
29 16 16
30 12 15
31 10 14
32 12 13
33 2 11
34 3 11
35 10 10
36 8 9
37 9 9
38 7 8
39 4 6
40 5 6
41 6 6
42 4 5
43 1 3
44 1 2
45 1 1

